4 3 
1 5
10 5
100 5

12 3 
1 5
100 3
10 4

12 3 
1 3
10 4
100 5

12 3 
1 5
10 4
100 3

5 3 
1 5
10 5
100 5

9 3
1 5
10 5
100 5

10 3
1 5
10 5
100 5

10 3
1 5
10 5
100 11

5 3
1 5
1 5
1 5

10 3
1 5
1 5
1 5

9 4
1 6
1 3
1 6
1 3

10 3 
1 2
1 2
1 1

6 4
5 4
4 3
3 2
2 1

6 4
4 3
3 2
5 4
2 1

8 4
1 2
2 3
5 4
6 5
